NAME: ACTUAL_TOURS/amz1405
TYPE: TOUR
COMMENT: RouteID_95c94c78-1cd0-4c7d-b260-f41ca4384fd8
DIMENSION: 95
TOUR_SECTION
35
93
53
20
12
8
94
63
59
83
52
46
79
82
16
62
28
49
64
44
26
24
47
37
10
27
54
11
68
89
77
80
86
51
22
92
42
43
33
18
56
70
76
85
31
58
13
14
81
2
72
74
6
61
45
95
25
30
39
50
3
7
17
29
78
19
57
4
75
73
9
87
1
91
41
84
21
67
36
71
66
88
55
15
40
69
5
34
90
48
32
38
60
65
23
-1
EOF
